N = 5;
Capacity = 4;
nbVehicles = 7;
maxVisitsPerCustomer = 2;
ItemsPerCustomer = [3, 8, 8, 7, 2];
maxItemsPerCustomer = 8;
binCapacity = 50;
SizesOfItems = [|
  35, 14, 10, 0, 0, 0, 0, 0
| 40, 39, 37, 30, 27, 24, 24, 13
| 40, 40, 37, 20, 17, 14, 12, 10
| 21, 20, 19, 18, 16, 13, 12, 0
| 30, 24, 0, 0, 0, 0, 0, 0
|];
Distance = [|
  0, 45, 40, 53, 44, 31
| 45, 0, 63, 97, 41, 49
| 40, 63, 0, 54, 81, 71
| 53, 97, 54, 0, 91, 72
| 44, 41, 81, 91, 0, 20
| 31, 49, 71, 72, 20, 0
|];
